100
32
17
7
18
3
32
10
6
2
20
28
1
29
12
19
9
1
30
29
13
2
9
8
7
12
31
11
27
2
19
32
3
14
17
15
15
9
32
32
18
16
13
7
31
9
21
7
12
28
24
19
8
30
19
30
25
19
13
4
27
21
20
25
1
18
18
24
32
28
8
18
29
2
25
23
4
18
8
2
6
21
22
16
16
2
31
19
8
3
4
11
18
18
23
31
6
19
7
20
5
3